# This is a deepmd model

pair_style      none
